%-----------------------------------------------------------------------------%
% Dual Arm Multi Capacity Multi Tool Scheduling / Routing
% Assembly Configuration
% Auto Generated by python script, authored by Johan Ludde Wessen 
%-----------------------------------------------------------------------------%


task_durations = [|21, 26, 32, 26, 34, 34, 24, 25, 21, 31, 21, 31, 56, 59, 50, 52, 57, 61, 42, 49, 52, 57, 59, 63,  5,  7,  4,  8,  7,  7,  6,  6,  4,  5,  8
                  |24, 25, 27, 22, 33, 28, 22, 25, 25, 23, 26, 35, 51, 58, 56, 58, 48, 47, 44, 59, 46, 56, 55, 52,  6,  6,  5,  7,  7,  5,  5,  8,  6,  4,  7
                  |];


TRAY_TASKS = 1..10;
CAMERA_TASKS = {  };
OUTPUT_TASKS = { 24 };


empty_gripper_tasks = 25..35;


gripper_pick_tasks_orders = [|1, 13, -1
|2, 14, -1
|3, 15, -1
|4, 16, -1
|5, 17, -1
|6, 18, -1
|7, 19, -1
|8, 20, -1
|9, 21, -1
|10, 22, -1
|11, 23, -1
|12, 24, -1
|];

suction_pick_tasks_orders = [||];

fixture_task_orders = [|13, 25, 14, 26, 15, 27, 16, 28, 17, 29, 11, -1, -1, -1
|18, 30, 19, 31, 20, 32, 21, 33, 22, 34, 23, 35, 12, -1
|];

